     Program PWSCF v.7.3.1 starts on 10Feb2025 at 22:17:15

     Waiting for input...
     Reading input from standard input

     Current dimensions of program PWSCF are:
     Max number of different atomic species (ntypx) = 10
     Max number of k-points (npk) =  40000
     Max angular momentum in pseudopotentials (lmaxx) =  4

     gamma-point specific algorithms are used
     Found identity + (  0.0000  0.2500  0.0000) symmetry
     This is a supercell, fractional translations are disabled

     R & G space division:  proc/nbgrp/npool/nimage =       4
     Subspace diagonalization in iterative solution of the eigenvalue problem:
     one sub-group per band group will be used

     Using Slab Decomposition

     bravais-lattice index     =            4
     lattice parameter (alat)  =      19.7616  a.u.
     unit-cell volume          =   15896.6765 (a.u.)^3
     number of atoms/cell      =           64
     number of atomic types    =            1
     number of electrons       =      1280.00
     number of Kohn-Sham states=          768
     kinetic-energy cutoff     =      50.0000  Ry
     charge density cutoff     =     500.0000  Ry
     scf convergence threshold =      1.0E-06
     mixing beta               =       0.7000
     number of iterations used =            8  plain     mixing
     Exchange-correlation= SLA  PW   PBE  PBE
                           (   1   4   3   4   0   0   0)

     celldm(1)=  19.761622  celldm(2)=   0.000000  celldm(3)=   2.378526
     celldm(4)=   0.000000  celldm(5)=   0.000000  celldm(6)=   0.000000

     crystal axes: (cart. coord. in units of alat)
               a(1) = (   1.000000   0.000000   0.000000 )
               a(2) = (  -0.500000   0.866025   0.000000 )
               a(3) = (   0.000000   0.000000   2.378526 )

     reciprocal axes: (cart. coord. in units 2 pi/alat)
               b(1) = (  1.000000  0.577350 -0.000000 )
               b(2) = (  0.000000  1.154701  0.000000 )
               b(3) = (  0.000000 -0.000000  0.420428 )

     PseudoPot. # 1 for Zn read from file:
     /home/ys/qe-7.3.1/pseudo/Standard_solid-state_pseudopotentials_SSSP_1.3.0_PBE_efficiency/Zn_pbe_v1.uspp.F.UPF
     MD5 check sum: df62231357ef9e81f77b2b3087fa5675
     Pseudo is Ultrasoft, Zval = 20.0
     Generated by new atomic code, or converted to UPF format
     Using radial grid of  943 points,  6 beta functions with:
                l(1) =   0
                l(2) =   0
                l(3) =   1
                l(4) =   1
                l(5) =   2
                l(6) =   2
     Q(r) pseudized with  8 coefficients,  rinner =    1.100   1.100   1.100
                                                       1.100   1.100

     atomic species   valence    mass     pseudopotential
     Zn               20.00    65.39000     Zn( 1.00)

     12 Sym. Ops. (no inversion) found

   Cartesian axes

     site n.     atom                  positions (alat units)
         1        Zn     tau(   1) = (  -0.0000005   0.1443384   0.1165000  )
         2        Zn     tau(   2) = (  -0.1250010   0.3608456   0.1165000  )
         3        Zn     tau(   3) = (  -0.2500014   0.5773528   0.1165000  )
         4        Zn     tau(   4) = (  -0.3750019   0.7938599   0.1165000  )
         5        Zn     tau(   5) = (   0.2500005   0.1443384   0.1165000  )
         6        Zn     tau(   6) = (   0.1250000   0.3608456   0.1165000  )
         7        Zn     tau(   7) = (  -0.0000005   0.5773528   0.1165000  )
         8        Zn     tau(   8) = (  -0.1250010   0.7938599   0.1165000  )
         9        Zn     tau(   9) = (   0.5000014   0.1443384   0.1165000  )
        10        Zn     tau(  10) = (   0.3750010   0.3608456   0.1165000  )
        11        Zn     tau(  11) = (   0.2500005   0.5773528   0.1165000  )
        12        Zn     tau(  12) = (   0.1250000   0.7938599   0.1165000  )
        13        Zn     tau(  13) = (   0.7500024   0.1443384   0.1165000  )
        14        Zn     tau(  14) = (   0.6250019   0.3608456   0.1165000  )
        15        Zn     tau(  15) = (   0.5000014   0.5773528   0.1165000  )
        16        Zn     tau(  16) = (   0.3750010   0.7938599   0.1165000  )
        17        Zn     tau(  17) = (  -0.0000005   0.1443384   0.3495001  )
        18        Zn     tau(  18) = (  -0.1250010   0.3608456   0.3495001  )
        19        Zn     tau(  19) = (  -0.2500014   0.5773528   0.3495001  )
        20        Zn     tau(  20) = (  -0.3750019   0.7938599   0.3495001  )
        21        Zn     tau(  21) = (   0.2500005   0.1443384   0.3495001  )
        22        Zn     tau(  22) = (   0.1250000   0.3608456   0.3495001  )
        23        Zn     tau(  23) = (  -0.0000005   0.5773528   0.3495001  )
        24        Zn     tau(  24) = (  -0.1250010   0.7938599   0.3495001  )
        25        Zn     tau(  25) = (   0.5000014   0.1443384   0.3495001  )
        26        Zn     tau(  26) = (   0.3750010   0.3608456   0.3495001  )
        27        Zn     tau(  27) = (   0.2500005   0.5773528   0.3495001  )
        28        Zn     tau(  28) = (   0.1250000   0.7938599   0.3495001  )
        29        Zn     tau(  29) = (   0.7500024   0.1443384   0.3495001  )
        30        Zn     tau(  30) = (   0.6250019   0.3608456   0.3495001  )
        31        Zn     tau(  31) = (   0.5000014   0.5773528   0.3495001  )
        32        Zn     tau(  32) = (   0.3750010   0.7938599   0.3495001  )
        33        Zn     tau(  33) = (   0.1250010   0.0721688   0.1165000  )
        34        Zn     tau(  34) = (   0.0000005   0.2886760   0.1165000  )
        35        Zn     tau(  35) = (  -0.1250000   0.5051831   0.1165000  )
        36        Zn     tau(  36) = (  -0.2500005   0.7216903   0.1165000  )
        37        Zn     tau(  37) = (   0.3750019   0.0721688   0.1165000  )
        38        Zn     tau(  38) = (   0.2500014   0.2886760   0.1165000  )
        39        Zn     tau(  39) = (   0.1250010   0.5051831   0.1165000  )
        40        Zn     tau(  40) = (   0.0000005   0.7216903   0.1165000  )
        41        Zn     tau(  41) = (   0.6250029   0.0721688   0.1165000  )
        42        Zn     tau(  42) = (   0.5000024   0.2886760   0.1165000  )
        43        Zn     tau(  43) = (   0.3750019   0.5051831   0.1165000  )
        44        Zn     tau(  44) = (   0.2500014   0.7216903   0.1165000  )
        45        Zn     tau(  45) = (   0.8750038   0.0721688   0.1165000  )
        46        Zn     tau(  46) = (   0.7500033   0.2886760   0.1165000  )
        47        Zn     tau(  47) = (   0.6250029   0.5051831   0.1165000  )
        48        Zn     tau(  48) = (   0.5000024   0.7216903   0.1165000  )
        49        Zn     tau(  49) = (   0.1250010   0.0721688   0.3495001  )
        50        Zn     tau(  50) = (   0.0000005   0.2886760   0.3495001  )
        51        Zn     tau(  51) = (  -0.1250000   0.5051831   0.3495001  )
        52        Zn     tau(  52) = (  -0.2500005   0.7216903   0.3495001  )
        53        Zn     tau(  53) = (   0.3750019   0.0721688   0.3495001  )
        54        Zn     tau(  54) = (   0.2500014   0.2886760   0.3495001  )
        55        Zn     tau(  55) = (   0.1250010   0.5051831   0.3495001  )
        56        Zn     tau(  56) = (   0.0000005   0.7216903   0.3495001  )
        57        Zn     tau(  57) = (   0.6250029   0.0721688   0.3495001  )
        58        Zn     tau(  58) = (   0.5000024   0.2886760   0.3495001  )
        59        Zn     tau(  59) = (   0.3750019   0.5051831   0.3495001  )
        60        Zn     tau(  60) = (   0.2500014   0.7216903   0.3495001  )
        61        Zn     tau(  61) = (   0.8750038   0.0721688   0.3495001  )
        62        Zn     tau(  62) = (   0.7500033   0.2886760   0.3495001  )
        63        Zn     tau(  63) = (   0.6250029   0.5051831   0.3495001  )
        64        Zn     tau(  64) = (   0.5000024   0.7216903   0.3495001  )

     number of k points=     1  Gaussian smearing, width (Ry)=  0.0100
                       cart. coord. in units 2pi/alat
        k(    1) = (   0.0000000   0.0000000   0.0000000), wk =   2.0000000

     Initial potential from superposition of free atoms

     starting charge    1279.9910, renormalised to    1280.0000

     negative rho (up, down):  2.536E-03 0.000E+00
     Starting wfcs are  832 randomized atomic wfcs
                                                                                                                                                                                                                                                                                                                                                                                                  ethr =  8.32E-05,  avg # of iterations =  4.0

     negative rho (up, down):  1.108E-03 0.000E+00

     total energy              =  -29458.64197974 Ry
     estimated scf accuracy    <       1.06387890 Ry

     iteration #  2     ecut=    50.00 Ry     beta= 0.70
     Davidson diagonalization with overlap
     ethr =  8.31E-05,  avg # of iterations =  5.0

[...]

     total energy              =  -29458.86175167 Ry
     estimated scf accuracy    <       0.00000104 Ry

     iteration # 10     ecut=    50.00 Ry     beta= 0.70
     Davidson diagonalization with overlap
     ethr =  8.10E-11,  avg # of iterations =  2.0

     negative rho (up, down):  2.152E-03 0.000E+00

     End of self-consistent calculation

          k = 0.0000 0.0000 0.0000 ( 47459 PWs)   bands (ev):

  -129.2198-129.2166-128.9633-128.9633-128.9632-128.9631-128.9631-128.9630
  -128.9603-128.9603-128.9602-128.9601-128.9601-128.9600-128.5435-128.5435
  -128.5434-128.5433-128.5433-128.5433-128.5429-128.5428-128.5428-128.5408
  -128.5407-128.5406-128.5406-128.5406-128.5406-128.5403-128.5401-128.5401
  -127.8524-127.8524-127.8523-127.8519-127.8519-127.8518-127.8518-127.8518
  -127.8518-127.8501-127.8501-127.8499-127.8496-127.8496-127.8495-127.8495
  -127.8495-127.8494-127.4158-127.4158-127.4157-127.4157-127.4156-127.4156
  -127.4137-127.4137-127.4136-127.4136-127.4136-127.4135-127.1426-127.1407
   -85.1774 -85.1773 -85.1773 -85.1772 -85.1771 -85.1770 -85.1736 -85.1736
   -85.1735 -85.1735 -85.1733 -85.1733 -85.0714 -85.0711 -85.0711 -85.0677
   -85.0674 -85.0674 -84.9018 -84.9018 -84.9016 -84.9015 -84.9015 -84.9015
   -84.8983 -84.8983 -84.8980 -84.8980 -84.8980 -84.8980 -84.7156 -84.7153
   -84.7123 -84.7119 -84.3619 -84.3619 -84.3617 -84.3617 -84.3615 -84.3615
   -84.3588 -84.3588 -84.3586 -84.3585 -84.3584 -84.3584 -83.8879 -83.8879
   -83.8876 -83.8847 -83.8847 -83.8845 -83.6152 -83.6152 -83.6150 -83.6150
   -83.6150 -83.6150 -83.6124 -83.6124 -83.6122 -83.6122 -83.6121 -83.6121
   -82.3156 -82.2774 -82.2124 -82.2124 -82.2124 -82.2124 -82.2123 -82.2123
   -82.2102 -82.2102 -82.2101 -82.2101 -82.2100 -82.2100 -82.1711 -82.1711
   -82.1710 -82.1709 -82.1709 -82.1709 -82.1351 -82.1351 -82.1350 -82.1349
   -82.1349 -82.1348 -81.9482 -81.9481 -81.9481 -81.9454 -81.9453 -81.9453
   -81.9371 -81.9371 -81.9371 -81.9370 -81.9370 -81.9370 -81.9358 -81.9357
   -81.9357 -81.9046 -81.9046 -81.9045 -81.9045 -81.9045 -81.9044 -81.9043
   -81.9042 -81.9042 -81.5590 -81.5590 -81.5590 -81.5588 -81.5588 -81.5587
   -81.5587 -81.5587 -81.5587 -81.5317 -81.5317 -81.5316 -81.5316 -81.5315
   -81.5314 -81.5314 -81.5314 -81.5314 -81.4620 -81.4620 -81.4619 -81.4618
   -81.4618 -81.4618 -81.4601 -81.4601 -81.4600 -81.4600 -81.4600 -81.4600
   -81.3247 -81.3247 -81.3246 -81.3246 -81.3245 -81.3245 -81.3008 -81.3008
   -81.3007 -81.3006 -81.3006 -81.3006 -81.1797 -81.1579 -81.0963 -81.0961
   -81.0948 -81.0946 -80.8997 -80.8997 -80.8997 -80.8996 -80.8996 -80.8996
   -80.8984 -80.8984 -80.8984 -80.8984 -80.8983 -80.8983 -80.7197 -80.7197
   -80.7196 -80.7187 -80.7187 -80.7186 -80.6215 -80.6214 -80.6214 -80.6214
   -80.6213 -80.6213 -80.6204 -80.6203 -80.6203 -80.6203 -80.6202 -80.6202
   -15.8624 -15.8624 -15.8623 -15.8622 -15.8621 -15.8620 -15.7415 -15.7415
   -15.7414 -15.7413 -15.7412 -15.7411 -15.1686 -15.1685 -15.1683 -15.0403
   -15.0403 -15.0400 -13.7760 -13.7759 -13.7756 -13.7496 -13.7496 -13.7492
   -13.7461 -13.7344 -13.7343 -13.7342 -13.7342 -13.7340 -13.7340 -13.6057
   -13.6057 -13.6056 -13.6055 -13.6054 -13.6054 -13.4429 -13.1260 -13.1260
   -13.1260 -13.1260 -13.1258 -13.1257 -12.9042 -12.9042 -12.9041 -12.9040
   -12.9039 -12.9038 -12.8668 -12.8668 -12.8667 -12.8667 -12.8665 -12.8665
   -12.5072 -12.5069 -12.5069 -12.4816 -12.4816 -12.4815 -12.4815 -12.4813
   -12.4813 -12.4350 -12.4350 -12.4346 -12.4346 -12.4346 -12.4346 -12.4084
   -12.4084 -12.4080 -12.4080 -12.4080 -12.4080 -12.2839 -12.2839 -12.2838
   -12.2837 -12.2837 -12.2836 -12.1467 -12.1466 -12.1466 -12.1464 -12.1464
   -12.1464 -12.0976 -12.0975 -12.0973 -12.0973 -12.0973 -12.0973 -12.0662
   -12.0662 -12.0660 -12.0439 -12.0437 -12.0437 -11.9040 -11.7620 -11.7620
   -11.7618 -11.7618 -11.7617 -11.7617 -11.6828 -11.6828 -11.6826 -11.6825
   -11.6825 -11.6825 -11.6126 -11.6123 -11.5866 -11.5865 -11.5865 -11.5864
   -11.5863 -11.5863 -11.4783 -11.4782 -11.4782 -11.4781 -11.4780 -11.4780
   -11.2574 -11.2571 -11.2128 -11.2128 -11.2126 -11.1903 -11.1900 -11.1900
   -11.1768 -11.1768 -11.1766 -11.1766 -11.1765 -11.1765 -10.9995 -10.9993
   -10.9993 -10.9118 -10.9118 -10.9116 -10.9115 -10.9115 -10.9115 -10.5968
   -10.5968 -10.5968 -10.5967 -10.5967 -10.5966 -10.5507 -10.5506 -10.5311
   -10.5311 -10.4999 -10.4999 -10.4553 -10.4553 -10.3360 -10.3360 -10.3358
   -10.3358 -10.3358 -10.3358  -9.5332  -9.5331  -9.5331  -9.5331  -9.5330
    -9.5330  -8.8087  -8.8086  -8.8086  -8.5354  -8.5353  -8.5353  -8.5353
    -8.5352  -8.5352  -8.2459  -8.2459  -8.2458  -8.2458  -8.2457  -8.2457
    -8.1087  -8.1087  -8.1086  -8.1086  -8.1086  -8.1085  -8.0827  -8.0826
    -8.0826  -8.0826  -8.0824  -8.0824  -8.0298  -8.0298  -8.0296  -7.9138
    -7.9138  -7.9138  -7.7489  -7.7489  -7.7488  -7.7487  -7.7487  -7.7487
    -7.7256  -7.6468  -7.6468  -7.6467  -7.6467  -7.6467  -7.6467  -7.6209
[...]
     4.8293   4.9034   4.9035   4.9035   4.9035   4.9036   4.9036   5.6243
     5.6243   5.6244   5.6244   5.6244   5.6244   6.3168   6.7133   6.7133
     6.7133   6.7133   6.7133   6.7133   6.7796   6.7796   6.7798   6.8327
     7.0681   7.8446   8.0888   8.0888   8.0888   8.2005   8.2005   8.2006
     8.2006   8.2006   8.2006   8.2739   8.7274   8.7274   8.7274   8.7274
     8.7274   8.7274   8.9075   8.9075   8.9075   8.9075   8.9075   8.9075
     9.0513   9.0514   9.0514   9.0514   9.0514   9.0514   9.5766   9.7023
     9.7023   9.7023   9.7023   9.7023   9.7023  10.1134  10.1134  10.1134
    10.1134  10.1134  10.1134  10.1396  10.1521  10.1521  10.1521  10.1522
    10.1522  10.1522  10.3243  10.3243  10.3243  10.3243  10.3244  10.3244
    10.6669  10.6669  10.6669  10.7057  10.7057  10.7057  10.9183  10.9183
    10.9184  11.2018  11.2018  11.2018  11.2018  11.2018  11.2018  11.4010
    11.4010  11.4011  11.4011  11.4011  11.4011  11.5096  11.5096  11.5096
    11.5096  11.5096  11.5096  11.8453  11.8453  11.8453  11.8453  11.8454
    11.8454  11.9057  11.9575  11.9575  11.9575  11.9575  11.9575  11.9575

     the Fermi energy is     4.0141 ev

!    total energy              =  -29458.86175167 Ry
     estimated scf accuracy    <       0.00000027 Ry
     smearing contrib. (-TS)   =      -0.00005758 Ry
     internal energy E=F+TS    =  -29458.86169409 Ry

     The total energy is F=E-TS. E is the sum of the following terms:
     one-electron contribution = -343868.52587473 Ry
     hartree contribution      =  171731.88053648 Ry
     xc contribution           =   -2757.56128475 Ry
     ewald contribution        =  145435.34492892 Ry

     convergence has been achieved in  10 iterations

     Writing all to output data dir /home/ys/Research/PSID_server_room/qe/zinc_surface/scf/zn_002_4layers_scf/pwscf.save/ :
     XML data file, charge density, pseudopotentials, collected wavefunctions

     General routines

     Parallel routines

   This run was terminated on:  22:43:22  10Feb2025

   JOB DONE.