     Program PWSCF v.7.3.1 starts on 10Feb2025 at 22:24: 1

     Waiting for input...
     Reading input from standard input

     Current dimensions of program PWSCF are:
     Max number of different atomic species (ntypx) = 10
     Max number of k-points (npk) =  40000
     Max angular momentum in pseudopotentials (lmaxx) =  4

     gamma-point specific algorithms are used
     Found identity + (  0.0000  0.2500  0.0000) symmetry
     This is a supercell, fractional translations are disabled

     R & G space division:  proc/nbgrp/npool/nimage =      10
     Subspace diagonalization in iterative solution of the eigenvalue problem:
     one sub-group per band group will be used

     Using Slab Decomposition

     bravais-lattice index     =           14
     lattice parameter (alat)  =      27.0138  a.u.
     unit-cell volume          =   21892.5290 (a.u.)^3
     number of atoms/cell      =           64
     number of atomic types    =            1
     number of electrons       =      1280.00
     number of Kohn-Sham states=          768
     kinetic-energy cutoff     =      50.0000  Ry
     charge density cutoff     =     500.0000  Ry
     scf convergence threshold =      1.0E-06
     mixing beta               =       0.7000
     number of iterations used =            8  plain     mixing
     Exchange-correlation= SLA  PW   PBE  PBE
                           (   1   4   3   4   0   0   0)

     celldm(1)=  27.013824  celldm(2)=   0.731537  celldm(3)=   1.757301
     celldm(4)=  -0.365770  celldm(5)=  -0.070307  celldm(6)=   0.365770

     crystal axes: (cart. coord. in units of alat)
               a(1) = (   1.000000   0.000000   0.000000 )
               a(2) = (   0.267574   0.680846   0.000000 )
               a(3) = (  -0.123550  -0.642069   1.631132 )

     reciprocal axes: (cart. coord. in units 2 pi/alat)
               b(1) = (  1.000000 -0.393003 -0.078955 )
               b(2) = ( -0.000000  1.468762  0.578155 )
               b(3) = (  0.000000  0.000000  0.613071 )

     PseudoPot. # 1 for Zn read from file:
     /home/ys/qe-7.3.1/pseudo/Standard_solid-state_pseudopotentials_SSSP_1.3.0_PBE_efficiency/Zn_pbe_v1.uspp.F.UPF
     MD5 check sum: df62231357ef9e81f77b2b3087fa5675
     Pseudo is Ultrasoft, Zval = 20.0
     Generated by new atomic code, or converted to UPF format
     Using radial grid of  943 points,  6 beta functions with:
                l(1) =   0
                l(2) =   0
                l(3) =   1
                l(4) =   1
                l(5) =   2
                l(6) =   2
     Q(r) pseudized with  8 coefficients,  rinner =    1.100   1.100   1.100
                                                       1.100   1.100

     atomic species   valence    mass     pseudopotential
     Zn               20.00    65.39000     Zn( 1.00)

     No symmetry found

   Cartesian axes

     site n.     atom                  positions (alat units)
         1        Zn     tau(   1) = (   0.1250000   0.0491254   0.0193370  )
         2        Zn     tau(   2) = (   0.1918940   0.2193373   0.0193370  )
         3        Zn     tau(   3) = (   0.2587880   0.3895494   0.0193370  )
         4        Zn     tau(   4) = (   0.3256821   0.5597613   0.0193370  )
         5        Zn     tau(   5) = (   0.3749993   0.0491254   0.0193370  )
         6        Zn     tau(   6) = (   0.4418933   0.2193373   0.0193370  )
         7        Zn     tau(   7) = (   0.5087873   0.3895494   0.0193370  )
         8        Zn     tau(   8) = (   0.5756814   0.5597613   0.0193370  )
         9        Zn     tau(   9) = (   0.6249986   0.0491254   0.0193370  )
        10        Zn     tau(  10) = (   0.6918927   0.2193373   0.0193370  )
        11        Zn     tau(  11) = (   0.7587867   0.3895494   0.0193370  )
        12        Zn     tau(  12) = (   0.8256808   0.5597613   0.0193370  )
        13        Zn     tau(  13) = (   0.8749979   0.0491254   0.0193370  )
        14        Zn     tau(  14) = (   0.9418920   0.2193373   0.0193370  )
        15        Zn     tau(  15) = (   1.0087860   0.3895494   0.0193370  )
        16        Zn     tau(  16) = (   1.0756801   0.5597613   0.0193370  )
        17        Zn     tau(  17) = (   0.1743167   0.0297438   0.2127125  )
        18        Zn     tau(  18) = (   0.2412107   0.1999557   0.2127125  )
        19        Zn     tau(  19) = (   0.3081047   0.3701677   0.2127125  )
        20        Zn     tau(  20) = (   0.3749988   0.5403797   0.2127125  )
        21        Zn     tau(  21) = (   0.4243160   0.0297438   0.2127125  )
        22        Zn     tau(  22) = (   0.4912100   0.1999557   0.2127125  )
        23        Zn     tau(  23) = (   0.5581040   0.3701677   0.2127125  )
        24        Zn     tau(  24) = (   0.6249981   0.5403797   0.2127125  )
        25        Zn     tau(  25) = (   0.6743153   0.0297438   0.2127125  )
        26        Zn     tau(  26) = (   0.7412094   0.1999557   0.2127125  )
        27        Zn     tau(  27) = (   0.8081034   0.3701677   0.2127125  )
        28        Zn     tau(  28) = (   0.8749974   0.5403797   0.2127125  )
        29        Zn     tau(  29) = (   0.9243146   0.0297438   0.2127125  )
        30        Zn     tau(  30) = (   0.9912087   0.1999557   0.2127125  )
        31        Zn     tau(  31) = (   1.0581027   0.3701677   0.2127125  )
        32        Zn     tau(  32) = (   1.1249967   0.5403797   0.2127125  )
        33        Zn     tau(  33) = (   0.2412112   0.0034536   0.1353626  )
        34        Zn     tau(  34) = (   0.3081052   0.1736656   0.1353626  )
        35        Zn     tau(  35) = (   0.3749993   0.3438776   0.1353626  )
        36        Zn     tau(  36) = (   0.4418933   0.5140895   0.1353626  )
        37        Zn     tau(  37) = (   0.4912105   0.0034536   0.1353626  )
        38        Zn     tau(  38) = (   0.5581045   0.1736656   0.1353626  )
        39        Zn     tau(  39) = (   0.6249986   0.3438776   0.1353626  )
        40        Zn     tau(  40) = (   0.6918926   0.5140895   0.1353626  )
        41        Zn     tau(  41) = (   0.7412099   0.0034536   0.1353626  )
        42        Zn     tau(  42) = (   0.8081039   0.1736656   0.1353626  )
        43        Zn     tau(  43) = (   0.8749979   0.3438776   0.1353626  )
        44        Zn     tau(  44) = (   0.9418920   0.5140895   0.1353626  )
        45        Zn     tau(  45) = (   0.9912092   0.0034536   0.1353626  )
        46        Zn     tau(  46) = (   1.0581032   0.1736656   0.1353626  )
        47        Zn     tau(  47) = (   1.1249972   0.3438776   0.1353626  )
        48        Zn     tau(  48) = (   1.1918913   0.5140895   0.1353626  )
        49        Zn     tau(  49) = (   0.0581054   0.0754155   0.0966869  )
        50        Zn     tau(  50) = (   0.1249995   0.2456275   0.0966869  )
        51        Zn     tau(  51) = (   0.1918935   0.4158395   0.0966869  )
        52        Zn     tau(  52) = (   0.2587876   0.5860514   0.0966869  )
        53        Zn     tau(  53) = (   0.3081047   0.0754155   0.0966869  )
        54        Zn     tau(  54) = (   0.3749988   0.2456275   0.0966869  )
        55        Zn     tau(  55) = (   0.4418928   0.4158395   0.0966869  )
        56        Zn     tau(  56) = (   0.5087869   0.5860514   0.0966869  )
        57        Zn     tau(  57) = (   0.5581041   0.0754155   0.0966869  )
        58        Zn     tau(  58) = (   0.6249981   0.2456275   0.0966869  )
        59        Zn     tau(  59) = (   0.6918922   0.4158395   0.0966869  )
        60        Zn     tau(  60) = (   0.7587862   0.5860514   0.0966869  )
        61        Zn     tau(  61) = (   0.8081034   0.0754155   0.0966869  )
        62        Zn     tau(  62) = (   0.8749974   0.2456275   0.0966869  )
        63        Zn     tau(  63) = (   0.9418915   0.4158395   0.0966869  )
        64        Zn     tau(  64) = (   1.0087855   0.5860514   0.0966869  )

     number of k points=     1  Gaussian smearing, width (Ry)=  0.0100
                       cart. coord. in units 2pi/alat
        k(    1) = (   0.0000000   0.0000000   0.0000000), wk =   2.0000000

     Initial potential from superposition of free atoms

     starting charge    1279.9910, renormalised to    1280.0000

     negative rho (up, down):  2.712E-03 0.000E+00
[psid01:214671] Set MCA parameter "orte_base_help_aggregate" to 0 to see all help / error messages
     Starting wfcs are  832 randomized atomic wfcs

     Self-consistent Calculation

     iteration #  1     ecut=    50.00 Ry     beta= 0.70
     Davidson diagonalization with overlap
     ethr =  1.00E-02,  avg # of iterations =  8.0

     Threshold (ethr) on eigenvalues was too large:
     Diagonalizing with lowered threshold

     Davidson diagonalization with overlap
     ethr =  7.94E-05,  avg # of iterations = 13.0

     negative rho (up, down):  1.268E-03 0.000E+00

     total energy              =  -29485.71322101 Ry
     estimated scf accuracy    <       1.07266697 Ry

[...]

     total energy              =  -29485.99021301 Ry
     estimated scf accuracy    <       0.00000414 Ry

     iteration # 13     ecut=    50.00 Ry     beta= 0.70
     Davidson diagonalization with overlap
     ethr =  3.23E-10,  avg # of iterations =  2.0

     negative rho (up, down):  2.532E-03 0.000E+00

     End of self-consistent calculation

          k = 0.0000 0.0000 0.0000 ( 65383 PWs)   bands (ev):

  -131.4189-131.4185-131.4184-131.4181-131.2209-131.2208-131.2207-131.2207
  -131.2203-131.2203-131.2202-131.2201-130.7380-130.7379-130.7379-130.7377
  -130.7373-130.7372-130.7371-130.7370-130.2484-130.2483-130.2482-130.2482
  -130.2478-130.2478-130.2477-130.2476-130.0440-130.0436-130.0435-130.0432
  -127.2358-127.2357-127.2356-127.2354-127.2333-127.2333-127.2332-127.2331
  -127.2330-127.2330-127.2328-127.2328-127.2276-127.2273-127.2273-127.2272
  -127.2271-127.2270-127.2269-127.2268-127.2213-127.2213-127.2211-127.2211
  -127.2210-127.2210-127.2208-127.2208-127.2185-127.2183-127.2182-127.2179
   -87.4289 -87.4287 -87.4286 -87.4283 -87.3250 -87.3249 -87.3248 -87.3247
   -87.3244 -87.3243 -87.3241 -87.3241 -86.9411 -86.9410 -86.9409 -86.9407
   -86.9398 -86.9397 -86.9395 -86.9394 -86.4361 -86.4361 -86.4360 -86.4360
   -86.4346 -86.4346 -86.4345 -86.4345 -86.2026 -86.2016 -86.2015 -86.2003
   -85.4759 -85.4747 -85.4747 -85.4734 -85.1230 -85.1229 -85.1228 -85.1228
   -85.1216 -85.1216 -85.1215 -85.1215 -84.6667 -84.6634 -84.6634 -84.6601
   -84.5558 -84.5557 -84.5556 -84.5556 -84.5512 -84.5511 -84.5510 -84.5510
   -84.3883 -84.3882 -84.3880 -84.3879 -84.3873 -84.3873 -84.3870 -84.3870
   -84.2908 -84.2908 -84.2907 -84.2906 -84.2846 -84.2846 -84.2845 -84.2844
   -84.0244 -84.0243 -84.0242 -84.0242 -84.0200 -84.0199 -84.0198 -84.0198
   -83.9151 -83.9121 -83.9120 -83.9089 -83.7233 -83.7233 -83.7232 -83.7232
   -83.7229 -83.7228 -83.7228 -83.7228 -83.4405 -83.4404 -83.4403 -83.4401
   -81.5026 -81.5022 -81.5022 -81.5017 -81.4495 -81.4495 -81.4493 -81.4493
   -81.4490 -81.4489 -81.4488 -81.4488 -81.4034 -81.4030 -81.4029 -81.4025
   -81.3973 -81.3971 -81.3971 -81.3971 -81.3965 -81.3964 -81.3963 -81.3963
   -81.3959 -81.3959 -81.3957 -81.3957 -81.3954 -81.3953 -81.3952 -81.3952
   -81.2003 -81.2001 -81.2001 -81.2000 -81.1999 -81.1999 -81.1998 -81.1996
   -81.1928 -81.1928 -81.1928 -81.1927 -81.1927 -81.1926 -81.1924 -81.1924
   -81.1845 -81.1842 -81.1841 -81.1841 -81.1841 -81.1840 -81.1840 -81.1839
   -81.1839 -81.1837 -81.1837 -81.1837 -81.1832 -81.1832 -81.1830 -81.1830
   -81.1827 -81.1827 -81.1825 -81.1824 -81.1821 -81.1820 -81.1819 -81.1816
   -81.1815 -81.1814 -81.1813 -81.1812 -81.1812 -81.1812 -81.1811 -81.1810
   -81.1809 -81.1809 -81.1808 -81.1808 -81.1807 -81.1806 -81.1806 -81.1805
   -81.1805 -81.1804 -81.1803 -81.1803 -81.1712 -81.1711 -81.1710 -81.1708
   -17.1112 -17.1112 -17.1110 -17.1110 -17.0594 -17.0594 -17.0593 -17.0593
   -16.8802 -16.8802 -16.8721 -16.8720 -16.8155 -16.8155 -16.8073 -16.8073
   -15.9523 -15.9171 -15.9171 -15.8737 -15.0683 -15.0683 -15.0680 -15.0680
   -15.0309 -15.0309 -15.0306 -15.0306 -15.0244 -15.0184 -15.0183 -15.0116
   -14.8259 -14.8258 -14.8257 -14.8256 -14.7241 -14.6910 -14.6910 -14.6686
   -14.6366 -14.6365 -14.6364 -14.6363 -14.5470 -14.5470 -14.4849 -14.4318
   -14.4317 -14.4280 -14.4279 -14.3944 -14.3943 -14.3781 -14.2607 -14.2607
   -13.5621 -13.5378 -13.5378 -13.5377 -13.5377 -13.5268 -13.5268 -13.5268
   -13.5268 -13.5195 -13.5195 -13.5195 -13.5195 -13.4818 -13.4818 -13.4818
   -13.4817 -13.4246 -13.4245 -13.4245 -13.4244 -13.3635 -13.3635 -13.3634
   -13.3634 -13.2056 -13.2056 -13.0997 -13.0046 -13.0046 -12.9972 -12.9972
   -12.9271 -12.9271 -12.9210 -12.9209 -12.8566 -12.7684 -12.7683 -12.5431
   -12.5079 -12.3726 -12.3725 -12.3290 -12.3247 -12.3247 -12.3246 -12.3246
   -12.2570 -11.9175 -11.8775 -11.8774 -11.8647 -11.8647 -11.8646 -11.8646
   -11.8354 -11.8091 -11.8091 -11.3987 -11.3987 -11.3986 -11.3986 -11.2944
   -11.2944 -11.1908 -11.1908 -10.9933 -10.9933 -10.9933 -10.9933 -10.8950
   -10.8949 -10.8634 -10.8634 -10.8634 -10.8633 -10.7738 -10.7738 -10.7070
   -10.7070 -10.7069 -10.7069 -10.4035 -10.4034 -10.3224 -10.2904 -10.2903
   -10.2542 -10.2542 -10.1335 -10.1335 -10.0848 -10.0847 -10.0606  -9.9745
    -9.9745  -9.9745  -9.9745  -9.9366  -9.9366  -9.9365  -9.9365  -9.9246
    -9.6141  -9.6141  -9.6140  -9.6140  -9.5041  -9.5041  -9.5041  -9.5040
    -9.4401  -9.0142  -9.0142  -8.9321  -8.8971  -8.8971  -8.8566  -8.8566
    -8.8123  -8.7924  -8.6453  -8.6453  -8.5294  -8.5294  -8.4758  -8.4758
    -8.4097  -8.4096  -8.4002  -8.3703  -8.3312  -8.3312  -8.3223  -8.3113
    -8.2726  -8.2726  -8.2725  -8.2725  -8.1662  -8.1662  -8.1662  -8.1662
    -8.0391  -8.0390  -8.0105  -8.0105  -8.0004  -8.0004  -8.0003  -8.0003
    -7.9604  -7.9604  -7.9347  -7.9304  -7.9304  -7.9231  -7.9231  -7.9230
    -7.9230  -7.9102  -7.8958  -7.8958  -7.8870  -7.8870  -7.8869  -7.8868
[...]
     1.4743   2.0863   2.0863   2.0863   2.0864   2.2461   2.3924   2.3924
     2.7576   2.7576   3.1203   3.1203   3.1203   3.1204   3.3123   3.3123
     3.3391   3.5644   3.5644   3.7733   3.7733   3.7733   3.7733   4.0964
     4.2989   4.2990   4.5245   4.5245   4.8904   5.2080   5.2081   5.2081
     5.2081   5.3407   5.4648   5.7040   5.7040   5.7042   5.7042   5.7408
     5.7408   5.7617   5.7618   5.7815   6.0109   6.0109   6.1387   6.1387
     6.1689   6.1689   6.1690   6.1690   6.3406   6.3406   6.3942   6.3942
     6.4680   6.4680   6.4731   6.4731   6.5432   6.5689   6.6537   6.6537
     6.7824   6.7824   6.8183   6.8183   6.8889   6.8889   6.9648   6.9648
     6.9858   6.9858   7.0075   7.0898   7.0898   7.0898   7.0898   7.1557
     7.1557   7.1840   7.1840   7.3449   7.4601   7.4601   7.5156   7.5156
     7.6504   7.8868   7.8868   7.9039   7.9039   7.9057   7.9057   7.9660
     7.9660   8.0442   8.1118   8.1118   8.1560   8.1560   8.1816   8.1816
     8.1918   8.1918   8.2367   8.3208   8.4881   8.4881   8.5666   8.5666
     8.5755   8.5755   8.5958   8.6549   8.6549   8.6594   8.7431   8.7431

     the Fermi energy is     1.2021 ev

!    total energy              =  -29485.99021336 Ry
     estimated scf accuracy    <       0.00000011 Ry
     smearing contrib. (-TS)   =      -0.01278737 Ry
     internal energy E=F+TS    =  -29485.97742599 Ry

     The total energy is F=E-TS. E is the sum of the following terms:
     one-electron contribution = -239647.60196226 Ry
     hartree contribution      =  119571.47665826 Ry
     xc contribution           =   -2735.85232183 Ry
     ewald contribution        =   93326.00019985 Ry

     convergence has been achieved in  13 iterations

     Writing all to output data dir /home/ys/Research/PSID_server_room/qe/zinc_surface/scf/zn_101_5layers_scf/pwscf.save/ :
     XML data file, charge density, pseudopotentials, collected wavefunctions

     General routines

     Parallel routines

   This run was terminated on:  23:17:11  10Feb2025

   JOB DONE.
Note: The following floating-point exceptions are signalling: IEEE_DENORMAL